40
    20    97    94    40    57    20    23    77    84    13    99    16    36    19    59    18    75    36    17    43    91    15    64    55     3    58    70    23    58    23    84    18    29    20    31    12    21    11    17    84
     9     5     2     9     7    10    10     3     7     8     2     9     4     6     3     6     3     1     4     2     5    10     9     8     3     4     2     4     6     2     6     3     1     6     3     7     6     7    10    10
  1171  1010   649  1448   751  1185   648  1100   676   672  1499   988   622  1362  1373   636  1191  1309  1333   577   701   666  1341   768   797   871   937   554  1163  1245  1482  1234   984  1293   607   837   920  1451   682   835
